
Gurobi 11.0.1 (win64) logging started Wed May 15 12:31:33 2024

Set parameter LogFile to value "output/solver_log27.txt"
Gurobi Optimizer version 11.0.1 build v11.0.1rc0 (win64 - Windows 11.0 (22631.2))

CPU model: 11th Gen Intel(R) Core(TM) i7-1165G7 @ 2.80GHz, instruction set [SSE2|AVX|AVX2|AVX512]
Thread count: 4 physical cores, 8 logical processors, using up to 8 threads

Optimize a model with 2267 rows, 452 columns and 42075 nonzeros
Model fingerprint: 0xe141d413
Variable types: 248 continuous, 204 integer (204 binary)
Coefficient statistics:
  Matrix range     [4e-01, 1e+05]
  Objective range  [1e+00, 1e+02]
  Bounds range     [1e+00, 1e+00]
  RHS range        [1e-02, 1e+05]

User MIP start produced solution with objective 76664.5 (0.00s)
User MIP start produced solution with objective 76664.5 (0.00s)
Loaded user MIP start with objective 76664.5

Presolve removed 115 rows and 113 columns
Presolve time: 0.04s
Presolved: 2152 rows, 339 columns, 41192 nonzeros
Variable types: 228 continuous, 111 integer (108 binary)

Root relaxation: cutoff, 14 iterations, 0.00 seconds (0.01 work units)

    Nodes    |    Current Node    |     Objective Bounds      |     Work
 Expl Unexpl |  Obj  Depth IntInf | Incumbent    BestBd   Gap | It/Node Time

     0     0     cutoff    0      76664.4733 76664.4733  0.00%     -    0s

Explored 1 nodes (14 simplex iterations) in 0.10 seconds (0.17 work units)
Thread count was 8 (of 8 available processors)

Solution count 2: 76664.5 76664.5 

Optimal solution found (tolerance 1.00e-04)
Best objective 7.666447333123e+04, best bound 7.666447333123e+04, gap 0.0000%
